benchmarks_vrp/CMT2/min_c/CMT2_0.vrp
NAME: CMT2_0
TYPE: CVRP
COMMENT: 835.26 - Cluster Nr.0
DIMENSION: 4
CAPACITY: 140
EDGE_WEIGHT_TYPE: EUC_2D
NODE_COORD_TYPE: TWOD_COORDS
NODE_COORD_SECTION: 
1 9 56
2 7 43
4 40 40
3 12 38
DEPOT_SECTION: 
4
-1
DEMAND_SECTION: 
4 0
3 5
1 13
2 27
EOF
