benchmarks_vrp/CMT2/min_c/CMT2_0.tour
NAME: CMT2_0 solution
TYPE: TOUR
TOUR_SECTION:
4 1 2 3 -1
-1
EOF